p cnf 22 8
e 1 2 3 4 0
a 5 0
e 6 0
a 7 0
e 8 0
a 9 10 0
e 11 0
a 12 0
e 13 14 15 0
a 16 17 18 19 20 21 0
e 22 0
-16 17 20 8 0
14 6 0
17 10 9 -5 -13 0
11 -16 -18 -20 -19 0
-1 22 -9 11 14 0
-2 -7 -21 0
4 11 -20 9 0
18 -7 -3 0
